p cnf 6 6
c        1 int_ARCHITECTURE_STACK_ALIGNMENT_EQ_1
c        2 boolean_ARCHITECTURE_FPU
c        3 boolean_ARCHITECTURE_HAS_FPU
c        4 boolean_ARCHITECTURE_EMPTY_STACK
c        5 boolean_ARCHITECTURE_ASCENDING_STACK
c        6 boolean_ARCHITECTURE_ARM
-7 0
-6 0
-5 0
-4 0
2 0
-3 0
